certificates/rado_a11_c145_N22.cnf
c Rad2 upper bound instance: x1 + 11*x2 - x3 = 145, interval [1,22]
p cnf 22 88
1 10 14 0
-1 -10 -14 0
1 15 21 0
-1 -15 -21 0
2 11 14 0
-2 -11 -14 0
2 15 22 0
-2 -15 -22 0
1 3 13 0
-1 -3 -13 0
3 12 14 0
-3 -12 -14 0
2 4 13 0
-2 -4 -13 0
4 13 14 0
-4 -13 -14 0
3 5 13 0
-3 -5 -13 0
5 14 0
-5 -14 0
4 6 13 0
-4 -6 -13 0
6 14 15 0
-6 -14 -15 0
5 7 13 0
-5 -7 -13 0
7 14 16 0
-7 -14 -16 0
6 8 13 0
-6 -8 -13 0
8 14 17 0
-8 -14 -17 0
7 9 13 0
-7 -9 -13 0
9 14 18 0
-9 -14 -18 0
8 10 13 0
-8 -10 -13 0
10 14 19 0
-10 -14 -19 0
9 11 13 0
-9 -11 -13 0
11 14 20 0
-11 -14 -20 0
10 12 13 0
-10 -12 -13 0
12 14 21 0
-12 -14 -21 0
11 13 0
-11 -13 0
13 14 22 0
-13 -14 -22 0
1 12 14 0
-1 -12 -14 0
12 13 14 0
-12 -13 -14 0
2 12 15 0
-2 -12 -15 0
13 15 0
-13 -15 0
3 12 16 0
-3 -12 -16 0
13 14 16 0
-13 -14 -16 0
4 12 17 0
-4 -12 -17 0
13 15 17 0
-13 -15 -17 0
5 12 18 0
-5 -12 -18 0
13 16 18 0
-13 -16 -18 0
6 12 19 0
-6 -12 -19 0
13 17 19 0
-13 -17 -19 0
7 12 20 0
-7 -12 -20 0
13 18 20 0
-13 -18 -20 0
8 12 21 0
-8 -12 -21 0
13 19 21 0
-13 -19 -21 0
9 12 22 0
-9 -12 -22 0
13 20 22 0
-13 -20 -22 0
