certificates/rado_a11_c145_N22.drat
-20 -21 -22 0
-15 -16 20 -21 0
-13 20 -22 0
-21 -22 0
d -20 -21 -22 0
-14 -19 13 0
20 -22 0
d -13 20 -22 0
-22 0
14 21 0
d 12 14 21 0
-20 -14 0
21 0
-14 0
5 0
13 0
-3 0
-7 0
-11 0
-15 0
-19 0
12 0
16 0
20 0
2 0
6 0
10 0
0
